(set-info :origin "Horn problem converted to SMT-LIB2 using Eldarica (https://github.com/uuverifiers/eldarica)")
(set-logic HORN)
(declare-fun INV_REC_f__2 (Int Int Int) Bool)
(declare-fun INV_REC_f__2_PRE (Int Int) Bool)
(declare-fun INV_REC_f^f_PRE (Int Int Int Int) Bool)
(declare-fun INV_REC_f^f (Int Int Int Int Int Int) Bool)
(declare-fun INV_REC_f__1 (Int Int Int) Bool)
(declare-fun INV_REC_f__1_PRE (Int Int) Bool)
(assert (forall ((A Int) (B Int) (C Int) (D Int) (E Int) (F Int) (G Int)) (not (and (and (and (and (and (and (and (and (not (= (+ A 1) B)) (= (+ C (- 1)) D)) (= (* (- 1) E) (- 1))) (INV_REC_f__2 D E B)) (= F 0)) (>= (+ C (- 1)) 0)) (= G 0)) (= A F)) (= G C)))))
(assert (forall ((A Int) (B Int) (C Int) (D Int) (E Int) (F Int))(=> (and (and (and (and (and (and (= (+ C (- 1)) A) (= (* (- 1) B) (- 1))) (= D 0)) (>= (+ C (- 1)) 0)) (= E 0)) (= F D)) (= E C)) (INV_REC_f__2_PRE A B))))
(assert (forall ((A Int) (B Int) (C Int) (D Int)) (not (and (and (and (and (and (not (= (+ A 1) (+ B 1))) (= C 0)) (not (and (>= (+ C (- 1)) 0) (= B 0)))) (= D 0)) (= A B)) (= D C)))))
(assert (forall ((A Int) (B Int) (C Int) (D Int) (E Int))(=> (and (and (and (and (and (= (+ C (- 1)) B) (not (= A 0))) (not (= C 0))) (= D 0)) (= E C)) (= D A)) (INV_REC_f__2_PRE A B))))
(assert (forall ((A Int) (B Int) (C Int) (D Int) (E Int) (F Int) (G Int) (H Int)) (not (and (and (and (and (and (and (and (and (and (not (= (+ A 1) B)) (= (+ C (- 1)) D)) (INV_REC_f__2 D E B)) (= (+ F (- 1)) G)) (INV_REC_f__2 C G E)) (not (= C 0))) (not (= F 0))) (= H 0)) (= A F)) (= H C)))))
(assert (forall ((A Int) (B Int) (C Int) (D Int) (E Int) (F Int) (G Int))(=> (and (and (and (and (and (and (and (= (+ C (- 1)) A) (= (+ D (- 1)) E)) (INV_REC_f__2 C E B)) (not (= C 0))) (not (= D 0))) (= F 0)) (= G D)) (= F C)) (INV_REC_f__2_PRE A B))))
(assert (forall ((A Int) (B Int) (C Int) (D Int) (E Int))(=> (and (and (and (and (and (= (+ C (- 1)) B) (not (= A 0))) (not (>= (+ A (- 1)) 0))) (= D 0)) (= E C)) (= D A)) (INV_REC_f__2_PRE A B))))
(assert (forall ((A Int) (B Int) (C Int) (D Int) (E Int) (F Int) (G Int) (H Int)) (not (and (and (and (and (and (and (and (and (and (not (= (+ A 1) B)) (= (+ C (- 1)) D)) (INV_REC_f__2 D E B)) (= (+ F (- 1)) G)) (INV_REC_f__2 C G E)) (not (= C 0))) (not (>= (+ C (- 1)) 0))) (= H 0)) (= A F)) (= H C)))))
(assert (forall ((A Int) (B Int) (C Int) (D Int) (E Int) (F Int) (G Int))(=> (and (and (and (and (and (and (and (= (+ C (- 1)) A) (= (+ D (- 1)) E)) (INV_REC_f__2 C E B)) (not (= C 0))) (not (>= (+ C (- 1)) 0))) (= F 0)) (= G D)) (= F C)) (INV_REC_f__2_PRE A B))))
(assert (forall ((A Int) (B Int) (C Int) (D Int) (E Int) (F Int) (G Int) (H Int))(=> (and (and (and (and (and (and (and (and (and (and (= (+ E (- 1)) A) (= (* (- 1) B) (- 1))) (= (+ F (- 1)) C)) (= (* (- 1) D) (- 1))) (= G 0)) (>= (+ F (- 1)) 0)) (= H 0)) (>= (+ E (- 1)) 0)) (not (= E 0))) (= H G)) (= E F)) (INV_REC_f^f_PRE A B C D))))
(assert (forall ((A Int) (B Int) (C Int) (D Int) (E Int) (F Int) (G Int) (H Int) (I Int) (J Int)) (not (and (and (and (and (and (and (and (and (and (and (and (and (not (= A B)) (= (+ C (- 1)) D)) (= (* (- 1) E) (- 1))) (= (+ F (- 1)) G)) (= (* (- 1) H) (- 1))) (INV_REC_f^f D E G H A B)) (= I 0)) (>= (+ F (- 1)) 0)) (= J 0)) (>= (+ C (- 1)) 0)) (not (= C 0))) (= J I)) (= C F)))))
(assert (forall ((A Int) (B Int) (C Int) (D Int) (E Int) (F Int) (G Int)) (not (and (and (and (and (and (and (and (and (and (and (not (= A (+ B 1))) (= (+ C (- 1)) D)) (= (* (- 1) E) (- 1))) (INV_REC_f__1 D E A)) (= F 0)) (not (>= (+ F (- 1)) 0))) (= G 0)) (>= (+ C (- 1)) 0)) (not (= C 0))) (= G B)) (= C F)))))
(assert (forall ((A Int) (B Int) (C Int) (D Int) (E Int) (F Int))(=> (and (and (and (and (and (and (and (and (= (+ C (- 1)) A) (= (* (- 1) B) (- 1))) (= D 0)) (not (>= (+ D (- 1)) 0))) (= E 0)) (>= (+ C (- 1)) 0)) (not (= C 0))) (= E F)) (= C D)) (INV_REC_f__1_PRE A B))))
(assert (forall ((A Int) (B Int) (C Int) (D Int) (E Int) (F Int) (G Int)) (not (and (and (and (and (and (and (and (and (and (and (not (= A (+ B 1))) (= (+ C (- 1)) D)) (= (* (- 1) E) (- 1))) (INV_REC_f__1 D E A)) (= F 0)) (not (= B 0))) (= G 0)) (>= (+ C (- 1)) 0)) (not (= C 0))) (= G B)) (= C F)))))
(assert (forall ((A Int) (B Int) (C Int) (D Int) (E Int) (F Int))(=> (and (and (and (and (and (and (and (and (= (+ C (- 1)) A) (= (* (- 1) B) (- 1))) (= D 0)) (not (= E 0))) (= F 0)) (>= (+ C (- 1)) 0)) (not (= C 0))) (= F E)) (= C D)) (INV_REC_f__1_PRE A B))))
(assert (forall ((A Int) (B Int) (C Int) (D Int) (E Int) (F Int) (G Int) (H Int) (I Int))(=> (and (and (and (and (and (and (and (and (and (and (and (= (+ E (- 1)) A) (= (* (- 1) B) (- 1))) (= (+ F (- 1)) C)) (= (+ G (- 1)) H)) (INV_REC_f__2 F H D)) (not (= F 0))) (not (>= (+ F (- 1)) 0))) (= I 0)) (>= (+ E (- 1)) 0)) (not (= E 0))) (= I G)) (= E F)) (INV_REC_f^f_PRE A B C D))))
(assert (forall ((A Int) (B Int) (C Int) (D Int) (E Int) (F Int) (G Int) (H Int) (I Int) (J Int) (K Int)) (not (and (and (and (and (and (and (and (and (and (and (and (and (and (not (= A B)) (= (+ C (- 1)) D)) (= (* (- 1) E) (- 1))) (= (+ F (- 1)) G)) (INV_REC_f^f D E G H A B)) (= (+ I (- 1)) J)) (INV_REC_f__2 F J H)) (not (= F 0))) (not (>= (+ F (- 1)) 0))) (= K 0)) (>= (+ C (- 1)) 0)) (not (= C 0))) (= K I)) (= C F)))))
(assert (forall ((A Int) (B Int) (C Int) (D Int) (E Int))(=> (and (and (and (and (and (and (and (= (+ C (- 1)) B) (not (= A 0))) (not (>= (+ A (- 1)) 0))) (= D 0)) (>= (+ E (- 1)) 0)) (not (= E 0))) (= D C)) (= E A)) (INV_REC_f__2_PRE A B))))
(assert (forall ((A Int) (B Int) (C Int) (D Int) (E Int) (F Int) (G Int) (H Int) (I Int))(=> (and (and (and (and (and (and (and (and (and (and (and (= (+ E (- 1)) A) (= (* (- 1) B) (- 1))) (= (+ F (- 1)) C)) (= (+ G (- 1)) H)) (INV_REC_f__2 F H D)) (not (= F 0))) (not (= G 0))) (= I 0)) (>= (+ E (- 1)) 0)) (not (= E 0))) (= I G)) (= E F)) (INV_REC_f^f_PRE A B C D))))
(assert (forall ((A Int) (B Int) (C Int) (D Int) (E Int) (F Int) (G Int) (H Int) (I Int) (J Int) (K Int)) (not (and (and (and (and (and (and (and (and (and (and (and (and (and (not (= A B)) (= (+ C (- 1)) D)) (= (* (- 1) E) (- 1))) (= (+ F (- 1)) G)) (INV_REC_f^f D E G H A B)) (= (+ I (- 1)) J)) (INV_REC_f__2 F J H)) (not (= F 0))) (not (= I 0))) (= K 0)) (>= (+ C (- 1)) 0)) (not (= C 0))) (= K I)) (= C F)))))
(assert (forall ((A Int) (B Int) (C Int) (D Int) (E Int))(=> (and (and (and (and (and (and (and (= (+ C (- 1)) B) (not (= A 0))) (not (= C 0))) (= D 0)) (>= (+ E (- 1)) 0)) (not (= E 0))) (= D C)) (= E A)) (INV_REC_f__2_PRE A B))))
(assert (forall ((A Int) (B Int) (C Int) (D Int) (E Int))(=> (and (and (and (and (and (and (= (+ C (- 1)) B) (= D 0)) (>= (+ E (- 1)) 0)) (not (= C 0))) (not (= A 0))) (= C D)) (= A E)) (INV_REC_f__1_PRE A B))))
(assert (forall ((A Int) (B Int) (C Int) (D Int) (E Int) (F Int) (G Int) (H Int) (I Int) (J Int) (K Int)) (not (and (and (and (and (and (and (and (and (and (and (and (and (not (= A B)) (= (+ C (- 1)) D)) (= (+ E (- 1)) F)) (= (* (- 1) G) (- 1))) (INV_REC_f^f D H F G A B)) (= (+ I (- 1)) J)) (INV_REC_f__1 C J H)) (= K 0)) (>= (+ E (- 1)) 0)) (not (= I 0))) (not (= C 0))) (= I K)) (= C E)))))
(assert (forall ((A Int) (B Int) (C Int) (D Int) (E Int) (F Int) (G Int) (H Int) (I Int))(=> (and (and (and (and (and (and (and (and (and (and (= (+ E (- 1)) A) (= (+ F (- 1)) C)) (= (* (- 1) D) (- 1))) (= (+ G (- 1)) H)) (INV_REC_f__1 E H B)) (= I 0)) (>= (+ F (- 1)) 0)) (not (= G 0))) (not (= E 0))) (= G I)) (= E F)) (INV_REC_f^f_PRE A B C D))))
(assert (forall ((A Int) (B Int) (C Int) (D Int) (E Int))(=> (and (and (and (and (and (and (= (+ C (- 1)) B) (= D 0)) (>= (+ E (- 1)) 0)) (not (>= (+ A (- 1)) 0))) (not (= A 0))) (= C D)) (= A E)) (INV_REC_f__1_PRE A B))))
(assert (forall ((A Int) (B Int) (C Int) (D Int) (E Int) (F Int) (G Int) (H Int) (I Int) (J Int) (K Int)) (not (and (and (and (and (and (and (and (and (and (and (and (and (not (= A B)) (= (+ C (- 1)) D)) (= (+ E (- 1)) F)) (= (* (- 1) G) (- 1))) (INV_REC_f^f D H F G A B)) (= (+ I (- 1)) J)) (INV_REC_f__1 C J H)) (= K 0)) (>= (+ E (- 1)) 0)) (not (>= (+ C (- 1)) 0))) (not (= C 0))) (= I K)) (= C E)))))
(assert (forall ((A Int) (B Int) (C Int) (D Int) (E Int) (F Int) (G Int) (H Int) (I Int))(=> (and (and (and (and (and (and (and (and (and (and (= (+ E (- 1)) A) (= (+ F (- 1)) C)) (= (* (- 1) D) (- 1))) (= (+ G (- 1)) H)) (INV_REC_f__1 E H B)) (= I 0)) (>= (+ F (- 1)) 0)) (not (>= (+ E (- 1)) 0))) (not (= E 0))) (= G I)) (= E F)) (INV_REC_f^f_PRE A B C D))))
(assert (forall ((A Int) (B Int) (C Int) (D Int) (E Int) (F Int) (G Int))(=> (and (and (and (and (and (and (and (and (= (+ C (- 1)) A) (= (+ D (- 1)) E)) (INV_REC_f__1 C E B)) (= F 0)) (not (>= (+ F (- 1)) 0))) (not (= D 0))) (not (= C 0))) (= D G)) (= C F)) (INV_REC_f__1_PRE A B))))
(assert (forall ((A Int) (B Int) (C Int) (D Int) (E Int) (F Int) (G Int) (H Int)) (not (and (and (and (and (and (and (and (and (and (and (not (= A (+ B 1))) (= (+ C (- 1)) D)) (INV_REC_f__1 D E A)) (= (+ F (- 1)) G)) (INV_REC_f__1 C G E)) (= H 0)) (not (>= (+ H (- 1)) 0))) (not (= F 0))) (not (= C 0))) (= F B)) (= C H)))))
(assert (forall ((A Int) (B Int) (C Int) (D Int) (E Int))(=> (and (and (and (and (and (and (= (+ C (- 1)) B) (= D 0)) (not (>= (+ D (- 1)) 0))) (not (= C 0))) (not (= A 0))) (= C E)) (= A D)) (INV_REC_f__1_PRE A B))))
(assert (forall ((A Int) (B Int) (C Int) (D Int) (E Int) (F Int) (G Int))(=> (and (and (and (and (and (and (and (and (= (+ C (- 1)) A) (= (+ D (- 1)) E)) (INV_REC_f__1 C E B)) (= F 0)) (not (= G 0))) (not (= D 0))) (not (= C 0))) (= D G)) (= C F)) (INV_REC_f__1_PRE A B))))
(assert (forall ((A Int) (B Int) (C Int) (D Int) (E Int) (F Int) (G Int) (H Int)) (not (and (and (and (and (and (and (and (and (and (and (not (= A (+ B 1))) (= (+ C (- 1)) D)) (INV_REC_f__1 D E A)) (= (+ F (- 1)) G)) (INV_REC_f__1 C G E)) (= H 0)) (not (= B 0))) (not (= F 0))) (not (= C 0))) (= F B)) (= C H)))))
(assert (forall ((A Int) (B Int) (C Int) (D Int) (E Int))(=> (and (and (and (and (and (and (= (+ C (- 1)) B) (= D 0)) (not (= E 0))) (not (= C 0))) (not (= A 0))) (= C E)) (= A D)) (INV_REC_f__1_PRE A B))))
(assert (forall ((A Int) (B Int) (C Int) (D Int) (E Int) (F Int) (G Int))(=> (and (and (and (and (and (and (and (and (= (+ C (- 1)) A) (= (+ D (- 1)) E)) (INV_REC_f__1 C E B)) (= F 0)) (not (>= (+ F (- 1)) 0))) (not (>= (+ C (- 1)) 0))) (not (= C 0))) (= D G)) (= C F)) (INV_REC_f__1_PRE A B))))
(assert (forall ((A Int) (B Int) (C Int) (D Int) (E Int) (F Int) (G Int) (H Int)) (not (and (and (and (and (and (and (and (and (and (and (not (= A (+ B 1))) (= (+ C (- 1)) D)) (INV_REC_f__1 D E A)) (= (+ F (- 1)) G)) (INV_REC_f__1 C G E)) (= H 0)) (not (>= (+ H (- 1)) 0))) (not (>= (+ C (- 1)) 0))) (not (= C 0))) (= F B)) (= C H)))))
(assert (forall ((A Int) (B Int) (C Int) (D Int) (E Int))(=> (and (and (and (and (and (and (= (+ C (- 1)) B) (= D 0)) (not (>= (+ D (- 1)) 0))) (not (>= (+ A (- 1)) 0))) (not (= A 0))) (= C E)) (= A D)) (INV_REC_f__1_PRE A B))))
(assert (forall ((A Int) (B Int) (C Int) (D Int) (E Int) (F Int) (G Int))(=> (and (and (and (and (and (and (and (and (= (+ C (- 1)) A) (= (+ D (- 1)) E)) (INV_REC_f__1 C E B)) (= F 0)) (not (= G 0))) (not (>= (+ C (- 1)) 0))) (not (= C 0))) (= D G)) (= C F)) (INV_REC_f__1_PRE A B))))
(assert (forall ((A Int) (B Int) (C Int) (D Int) (E Int) (F Int) (G Int) (H Int)) (not (and (and (and (and (and (and (and (and (and (and (not (= A (+ B 1))) (= (+ C (- 1)) D)) (INV_REC_f__1 D E A)) (= (+ F (- 1)) G)) (INV_REC_f__1 C G E)) (= H 0)) (not (= B 0))) (not (>= (+ C (- 1)) 0))) (not (= C 0))) (= F B)) (= C H)))))
(assert (forall ((A Int) (B Int) (C Int) (D Int) (E Int))(=> (and (and (and (and (and (and (= (+ C (- 1)) B) (= D 0)) (not (= E 0))) (not (>= (+ A (- 1)) 0))) (not (= A 0))) (= C E)) (= A D)) (INV_REC_f__1_PRE A B))))
(assert (forall ((A Int) (B Int) (C Int) (D Int) (E Int) (F Int) (G Int) (H Int) (I Int) (J Int))(=> (and (and (and (and (and (and (and (and (and (and (= (+ E (- 1)) A) (= (+ F (- 1)) C)) (= (+ G (- 1)) H)) (= (+ I (- 1)) J)) (INV_REC_f^f E H F J B D)) (not (= F 0))) (not (>= (+ F (- 1)) 0))) (not (= G 0))) (not (= E 0))) (= G I)) (= E F)) (INV_REC_f^f_PRE A B C D))))
(assert (forall ((A Int) (B Int) (C Int) (D Int) (E Int) (F Int) (G Int) (H Int) (I Int) (J Int) (K Int) (L Int)) (not (and (and (and (and (and (and (and (and (and (and (and (and (not (= A B)) (= (+ C (- 1)) D)) (= (+ E (- 1)) F)) (INV_REC_f^f D G F H A B)) (= (+ I (- 1)) J)) (= (+ K (- 1)) L)) (INV_REC_f^f C J E L G H)) (not (= E 0))) (not (>= (+ E (- 1)) 0))) (not (= I 0))) (not (= C 0))) (= I K)) (= C E)))))
(assert (forall ((A Int) (B Int) (C Int) (D Int) (E Int) (F Int))(=> (and (and (and (and (and (and (and (= (+ E (- 1)) B) (= (+ F (- 1)) D)) (not (= C 0))) (not (>= (+ C (- 1)) 0))) (not (= E 0))) (not (= A 0))) (= E F)) (= A C)) (INV_REC_f^f_PRE A B C D))))
(assert (forall ((A Int) (B Int) (C Int) (D Int) (E Int) (F Int) (G Int) (H Int) (I Int) (J Int))(=> (and (and (and (and (and (and (and (and (and (and (= (+ E (- 1)) A) (= (+ F (- 1)) C)) (= (+ G (- 1)) H)) (= (+ I (- 1)) J)) (INV_REC_f^f E H F J B D)) (not (= F 0))) (not (= I 0))) (not (= G 0))) (not (= E 0))) (= G I)) (= E F)) (INV_REC_f^f_PRE A B C D))))
(assert (forall ((A Int) (B Int) (C Int) (D Int) (E Int) (F Int) (G Int) (H Int) (I Int) (J Int) (K Int) (L Int)) (not (and (and (and (and (and (and (and (and (and (and (and (and (not (= A B)) (= (+ C (- 1)) D)) (= (+ E (- 1)) F)) (INV_REC_f^f D G F H A B)) (= (+ I (- 1)) J)) (= (+ K (- 1)) L)) (INV_REC_f^f C J E L G H)) (not (= E 0))) (not (= K 0))) (not (= I 0))) (not (= C 0))) (= I K)) (= C E)))))
(assert (forall ((A Int) (B Int) (C Int) (D Int) (E Int) (F Int))(=> (and (and (and (and (and (and (and (= (+ E (- 1)) B) (= (+ F (- 1)) D)) (not (= C 0))) (not (= F 0))) (not (= E 0))) (not (= A 0))) (= E F)) (= A C)) (INV_REC_f^f_PRE A B C D))))
(assert (forall ((A Int) (B Int) (C Int) (D Int) (E Int) (F Int) (G Int) (H Int) (I Int) (J Int))(=> (and (and (and (and (and (and (and (and (and (and (= (+ E (- 1)) A) (= (+ F (- 1)) C)) (= (+ G (- 1)) H)) (= (+ I (- 1)) J)) (INV_REC_f^f E H F J B D)) (not (= F 0))) (not (>= (+ F (- 1)) 0))) (not (>= (+ E (- 1)) 0))) (not (= E 0))) (= G I)) (= E F)) (INV_REC_f^f_PRE A B C D))))
(assert (forall ((A Int) (B Int) (C Int) (D Int) (E Int) (F Int) (G Int) (H Int) (I Int) (J Int) (K Int) (L Int)) (not (and (and (and (and (and (and (and (and (and (and (and (and (not (= A B)) (= (+ C (- 1)) D)) (= (+ E (- 1)) F)) (INV_REC_f^f D G F H A B)) (= (+ I (- 1)) J)) (= (+ K (- 1)) L)) (INV_REC_f^f C J E L G H)) (not (= E 0))) (not (>= (+ E (- 1)) 0))) (not (>= (+ C (- 1)) 0))) (not (= C 0))) (= I K)) (= C E)))))
(assert (forall ((A Int) (B Int) (C Int) (D Int) (E Int) (F Int))(=> (and (and (and (and (and (and (and (= (+ E (- 1)) B) (= (+ F (- 1)) D)) (not (= C 0))) (not (>= (+ C (- 1)) 0))) (not (>= (+ A (- 1)) 0))) (not (= A 0))) (= E F)) (= A C)) (INV_REC_f^f_PRE A B C D))))
(assert (forall ((A Int) (B Int) (C Int) (D Int) (E Int) (F Int) (G Int) (H Int) (I Int) (J Int))(=> (and (and (and (and (and (and (and (and (and (and (= (+ E (- 1)) A) (= (+ F (- 1)) C)) (= (+ G (- 1)) H)) (= (+ I (- 1)) J)) (INV_REC_f^f E H F J B D)) (not (= F 0))) (not (= I 0))) (not (>= (+ E (- 1)) 0))) (not (= E 0))) (= G I)) (= E F)) (INV_REC_f^f_PRE A B C D))))
(assert (forall ((A Int) (B Int) (C Int) (D Int) (E Int) (F Int) (G Int) (H Int) (I Int) (J Int) (K Int) (L Int)) (not (and (and (and (and (and (and (and (and (and (and (and (and (not (= A B)) (= (+ C (- 1)) D)) (= (+ E (- 1)) F)) (INV_REC_f^f D G F H A B)) (= (+ I (- 1)) J)) (= (+ K (- 1)) L)) (INV_REC_f^f C J E L G H)) (not (= E 0))) (not (= K 0))) (not (>= (+ C (- 1)) 0))) (not (= C 0))) (= I K)) (= C E)))))
(assert (forall ((A Int) (B Int) (C Int) (D Int) (E Int) (F Int))(=> (and (and (and (and (and (and (and (= (+ E (- 1)) B) (= (+ F (- 1)) D)) (not (= C 0))) (not (= F 0))) (not (>= (+ A (- 1)) 0))) (not (= A 0))) (= E F)) (= A C)) (INV_REC_f^f_PRE A B C D))))
(assert (forall ((A Int) (B Int) (C Int) (D Int) (E Int) (F Int) (G Int) (H Int))(=> (and (and (and (and (and (and (and (= (+ B 1) E) (= (+ C (- 1)) G)) (= (* (- 1) H) (- 1))) (INV_REC_f__2 G H F)) (= D 0)) (>= (+ C (- 1)) 0)) (= A 0)) (INV_REC_f^f_PRE A B C D)) (INV_REC_f^f A B C D E F))))
(assert (forall ((A Int) (B Int) (C Int) (D Int) (E Int) (F Int))(=> (and (and (and (and (and (= (+ C (- 1)) A) (= (* (- 1) B) (- 1))) (= D 0)) (>= (+ C (- 1)) 0)) (= E 0)) (INV_REC_f^f_PRE E F C D)) (INV_REC_f__2_PRE A B))))
(assert (forall ((A Int) (B Int) (C Int) (D Int) (E Int) (F Int))(=> (and (and (and (and (and (= (+ B 1) E) (= (+ D 1) F)) (= C 0)) (not (and (>= (+ C (- 1)) 0) (= D 0)))) (= A 0)) (INV_REC_f^f_PRE A B C D)) (INV_REC_f^f A B C D E F))))
(assert (forall ((A Int) (B Int) (C Int) (D Int) (E Int))(=> (and (and (and (and (= (+ C (- 1)) B) (not (= A 0))) (not (= C 0))) (= D 0)) (INV_REC_f^f_PRE D E A C)) (INV_REC_f__2_PRE A B))))
(assert (forall ((A Int) (B Int) (C Int) (D Int) (E Int) (F Int) (G Int) (H Int) (I Int))(=> (and (and (and (and (and (and (and (and (= (+ B 1) E) (= (+ C (- 1)) G)) (INV_REC_f__2 G H F)) (= (+ D (- 1)) I)) (INV_REC_f__2 C I H)) (not (= C 0))) (not (= D 0))) (= A 0)) (INV_REC_f^f_PRE A B C D)) (INV_REC_f^f A B C D E F))))
(assert (forall ((A Int) (B Int) (C Int) (D Int) (E Int) (F Int) (G Int))(=> (and (and (and (and (and (and (= (+ C (- 1)) A) (= (+ D (- 1)) E)) (INV_REC_f__2 C E B)) (not (= C 0))) (not (= D 0))) (= F 0)) (INV_REC_f^f_PRE F G C D)) (INV_REC_f__2_PRE A B))))
(assert (forall ((A Int) (B Int) (C Int) (D Int) (E Int))(=> (and (and (and (and (= (+ C (- 1)) B) (not (= A 0))) (not (>= (+ A (- 1)) 0))) (= D 0)) (INV_REC_f^f_PRE D E A C)) (INV_REC_f__2_PRE A B))))
(assert (forall ((A Int) (B Int) (C Int) (D Int) (E Int) (F Int) (G Int) (H Int) (I Int))(=> (and (and (and (and (and (and (and (and (= (+ B 1) E) (= (+ C (- 1)) G)) (INV_REC_f__2 G H F)) (= (+ D (- 1)) I)) (INV_REC_f__2 C I H)) (not (= C 0))) (not (>= (+ C (- 1)) 0))) (= A 0)) (INV_REC_f^f_PRE A B C D)) (INV_REC_f^f A B C D E F))))
(assert (forall ((A Int) (B Int) (C Int) (D Int) (E Int) (F Int) (G Int))(=> (and (and (and (and (and (and (= (+ C (- 1)) A) (= (+ D (- 1)) E)) (INV_REC_f__2 C E B)) (not (= C 0))) (not (>= (+ C (- 1)) 0))) (= F 0)) (INV_REC_f^f_PRE F G C D)) (INV_REC_f__2_PRE A B))))
(assert (forall ((A Int) (B Int) (C Int) (D Int) (E Int) (F Int) (G Int) (H Int))(=> (and (and (and (and (and (and (and (and (and (= (+ E (- 1)) A) (= (* (- 1) B) (- 1))) (= (+ F (- 1)) C)) (= (* (- 1) D) (- 1))) (= G 0)) (>= (+ F (- 1)) 0)) (= H 0)) (>= (+ E (- 1)) 0)) (not (= E 0))) (INV_REC_f^f_PRE E H F G)) (INV_REC_f^f_PRE A B C D))))
(assert (forall ((A Int) (B Int) (C Int) (D Int) (E Int) (F Int) (G Int) (H Int) (I Int) (J Int))(=> (and (and (and (and (and (and (and (and (and (and (= (+ A (- 1)) G) (= (* (- 1) H) (- 1))) (= (+ C (- 1)) I)) (= (* (- 1) J) (- 1))) (INV_REC_f^f G H I J E F)) (= D 0)) (>= (+ C (- 1)) 0)) (= B 0)) (>= (+ A (- 1)) 0)) (not (= A 0))) (INV_REC_f^f_PRE A B C D)) (INV_REC_f^f A B C D E F))))
(assert (forall ((A Int) (B Int) (C Int) (D Int) (E Int) (F Int) (G Int) (H Int))(=> (and (and (and (and (and (and (and (and (and (= (+ D 1) F) (= (+ A (- 1)) G)) (= (* (- 1) H) (- 1))) (INV_REC_f__1 G H E)) (= C 0)) (not (>= (+ C (- 1)) 0))) (= B 0)) (>= (+ A (- 1)) 0)) (not (= A 0))) (INV_REC_f^f_PRE A B C D)) (INV_REC_f^f A B C D E F))))
(assert (forall ((A Int) (B Int) (C Int) (D Int) (E Int) (F Int))(=> (and (and (and (and (and (and (and (= (+ C (- 1)) A) (= (* (- 1) B) (- 1))) (= D 0)) (not (>= (+ D (- 1)) 0))) (= E 0)) (>= (+ C (- 1)) 0)) (not (= C 0))) (INV_REC_f^f_PRE C E D F)) (INV_REC_f__1_PRE A B))))
(assert (forall ((A Int) (B Int) (C Int) (D Int) (E Int) (F Int) (G Int) (H Int))(=> (and (and (and (and (and (and (and (and (and (= (+ D 1) F) (= (+ A (- 1)) G)) (= (* (- 1) H) (- 1))) (INV_REC_f__1 G H E)) (= C 0)) (not (= D 0))) (= B 0)) (>= (+ A (- 1)) 0)) (not (= A 0))) (INV_REC_f^f_PRE A B C D)) (INV_REC_f^f A B C D E F))))
(assert (forall ((A Int) (B Int) (C Int) (D Int) (E Int) (F Int))(=> (and (and (and (and (and (and (and (= (+ C (- 1)) A) (= (* (- 1) B) (- 1))) (= D 0)) (not (= E 0))) (= F 0)) (>= (+ C (- 1)) 0)) (not (= C 0))) (INV_REC_f^f_PRE C F D E)) (INV_REC_f__1_PRE A B))))
(assert (forall ((A Int) (B Int) (C Int) (D Int) (E Int) (F Int) (G Int) (H Int) (I Int))(=> (and (and (and (and (and (and (and (and (and (and (= (+ E (- 1)) A) (= (* (- 1) B) (- 1))) (= (+ F (- 1)) C)) (= (+ G (- 1)) H)) (INV_REC_f__2 F H D)) (not (= F 0))) (not (>= (+ F (- 1)) 0))) (= I 0)) (>= (+ E (- 1)) 0)) (not (= E 0))) (INV_REC_f^f_PRE E I F G)) (INV_REC_f^f_PRE A B C D))))
(assert (forall ((A Int) (B Int) (C Int) (D Int) (E Int) (F Int) (G Int) (H Int) (I Int) (J Int) (K Int))(=> (and (and (and (and (and (and (and (and (and (and (and (= (+ A (- 1)) G) (= (* (- 1) H) (- 1))) (= (+ C (- 1)) I)) (INV_REC_f^f G H I J E F)) (= (+ D (- 1)) K)) (INV_REC_f__2 C K J)) (not (= C 0))) (not (>= (+ C (- 1)) 0))) (= B 0)) (>= (+ A (- 1)) 0)) (not (= A 0))) (INV_REC_f^f_PRE A B C D)) (INV_REC_f^f A B C D E F))))
(assert (forall ((A Int) (B Int) (C Int) (D Int) (E Int))(=> (and (and (and (and (and (and (= (+ C (- 1)) B) (not (= A 0))) (not (>= (+ A (- 1)) 0))) (= D 0)) (>= (+ E (- 1)) 0)) (not (= E 0))) (INV_REC_f^f_PRE E D A C)) (INV_REC_f__2_PRE A B))))
(assert (forall ((A Int) (B Int) (C Int) (D Int) (E Int) (F Int) (G Int) (H Int) (I Int))(=> (and (and (and (and (and (and (and (and (and (and (= (+ E (- 1)) A) (= (* (- 1) B) (- 1))) (= (+ F (- 1)) C)) (= (+ G (- 1)) H)) (INV_REC_f__2 F H D)) (not (= F 0))) (not (= G 0))) (= I 0)) (>= (+ E (- 1)) 0)) (not (= E 0))) (INV_REC_f^f_PRE E I F G)) (INV_REC_f^f_PRE A B C D))))
(assert (forall ((A Int) (B Int) (C Int) (D Int) (E Int) (F Int) (G Int) (H Int) (I Int) (J Int) (K Int))(=> (and (and (and (and (and (and (and (and (and (and (and (= (+ A (- 1)) G) (= (* (- 1) H) (- 1))) (= (+ C (- 1)) I)) (INV_REC_f^f G H I J E F)) (= (+ D (- 1)) K)) (INV_REC_f__2 C K J)) (not (= C 0))) (not (= D 0))) (= B 0)) (>= (+ A (- 1)) 0)) (not (= A 0))) (INV_REC_f^f_PRE A B C D)) (INV_REC_f^f A B C D E F))))
(assert (forall ((A Int) (B Int) (C Int) (D Int) (E Int))(=> (and (and (and (and (and (and (= (+ C (- 1)) B) (not (= A 0))) (not (= C 0))) (= D 0)) (>= (+ E (- 1)) 0)) (not (= E 0))) (INV_REC_f^f_PRE E D A C)) (INV_REC_f__2_PRE A B))))
(assert (forall ((A Int) (B Int) (C Int) (D Int) (E Int))(=> (and (and (and (and (and (= (+ C (- 1)) B) (= D 0)) (>= (+ E (- 1)) 0)) (not (= C 0))) (not (= A 0))) (INV_REC_f^f_PRE A C E D)) (INV_REC_f__1_PRE A B))))
(assert (forall ((A Int) (B Int) (C Int) (D Int) (E Int) (F Int) (G Int) (H Int) (I Int) (J Int) (K Int))(=> (and (and (and (and (and (and (and (and (and (and (= (+ A (- 1)) G) (= (+ C (- 1)) H)) (= (* (- 1) I) (- 1))) (INV_REC_f^f G J H I E F)) (= (+ B (- 1)) K)) (INV_REC_f__1 A K J)) (= D 0)) (>= (+ C (- 1)) 0)) (not (= B 0))) (not (= A 0))) (INV_REC_f^f_PRE A B C D)) (INV_REC_f^f A B C D E F))))
(assert (forall ((A Int) (B Int) (C Int) (D Int) (E Int) (F Int) (G Int) (H Int) (I Int))(=> (and (and (and (and (and (and (and (and (and (= (+ E (- 1)) A) (= (+ F (- 1)) C)) (= (* (- 1) D) (- 1))) (= (+ G (- 1)) H)) (INV_REC_f__1 E H B)) (= I 0)) (>= (+ F (- 1)) 0)) (not (= G 0))) (not (= E 0))) (INV_REC_f^f_PRE E G F I)) (INV_REC_f^f_PRE A B C D))))
(assert (forall ((A Int) (B Int) (C Int) (D Int) (E Int))(=> (and (and (and (and (and (= (+ C (- 1)) B) (= D 0)) (>= (+ E (- 1)) 0)) (not (>= (+ A (- 1)) 0))) (not (= A 0))) (INV_REC_f^f_PRE A C E D)) (INV_REC_f__1_PRE A B))))
(assert (forall ((A Int) (B Int) (C Int) (D Int) (E Int) (F Int) (G Int) (H Int) (I Int) (J Int) (K Int))(=> (and (and (and (and (and (and (and (and (and (and (= (+ A (- 1)) G) (= (+ C (- 1)) H)) (= (* (- 1) I) (- 1))) (INV_REC_f^f G J H I E F)) (= (+ B (- 1)) K)) (INV_REC_f__1 A K J)) (= D 0)) (>= (+ C (- 1)) 0)) (not (>= (+ A (- 1)) 0))) (not (= A 0))) (INV_REC_f^f_PRE A B C D)) (INV_REC_f^f A B C D E F))))
(assert (forall ((A Int) (B Int) (C Int) (D Int) (E Int) (F Int) (G Int) (H Int) (I Int))(=> (and (and (and (and (and (and (and (and (and (= (+ E (- 1)) A) (= (+ F (- 1)) C)) (= (* (- 1) D) (- 1))) (= (+ G (- 1)) H)) (INV_REC_f__1 E H B)) (= I 0)) (>= (+ F (- 1)) 0)) (not (>= (+ E (- 1)) 0))) (not (= E 0))) (INV_REC_f^f_PRE E G F I)) (INV_REC_f^f_PRE A B C D))))
(assert (forall ((A Int) (B Int) (C Int) (D Int) (E Int) (F Int) (G Int))(=> (and (and (and (and (and (and (and (= (+ C (- 1)) A) (= (+ D (- 1)) E)) (INV_REC_f__1 C E B)) (= F 0)) (not (>= (+ F (- 1)) 0))) (not (= D 0))) (not (= C 0))) (INV_REC_f^f_PRE C D F G)) (INV_REC_f__1_PRE A B))))
(assert (forall ((A Int) (B Int) (C Int) (D Int) (E Int) (F Int) (G Int) (H Int) (I Int))(=> (and (and (and (and (and (and (and (and (and (= (+ D 1) F) (= (+ A (- 1)) G)) (INV_REC_f__1 G H E)) (= (+ B (- 1)) I)) (INV_REC_f__1 A I H)) (= C 0)) (not (>= (+ C (- 1)) 0))) (not (= B 0))) (not (= A 0))) (INV_REC_f^f_PRE A B C D)) (INV_REC_f^f A B C D E F))))
(assert (forall ((A Int) (B Int) (C Int) (D Int) (E Int))(=> (and (and (and (and (and (= (+ C (- 1)) B) (= D 0)) (not (>= (+ D (- 1)) 0))) (not (= C 0))) (not (= A 0))) (INV_REC_f^f_PRE A C D E)) (INV_REC_f__1_PRE A B))))
(assert (forall ((A Int) (B Int) (C Int) (D Int) (E Int) (F Int) (G Int))(=> (and (and (and (and (and (and (and (= (+ C (- 1)) A) (= (+ D (- 1)) E)) (INV_REC_f__1 C E B)) (= F 0)) (not (= G 0))) (not (= D 0))) (not (= C 0))) (INV_REC_f^f_PRE C D F G)) (INV_REC_f__1_PRE A B))))
(assert (forall ((A Int) (B Int) (C Int) (D Int) (E Int) (F Int) (G Int) (H Int) (I Int))(=> (and (and (and (and (and (and (and (and (and (= (+ D 1) F) (= (+ A (- 1)) G)) (INV_REC_f__1 G H E)) (= (+ B (- 1)) I)) (INV_REC_f__1 A I H)) (= C 0)) (not (= D 0))) (not (= B 0))) (not (= A 0))) (INV_REC_f^f_PRE A B C D)) (INV_REC_f^f A B C D E F))))
(assert (forall ((A Int) (B Int) (C Int) (D Int) (E Int))(=> (and (and (and (and (and (= (+ C (- 1)) B) (= D 0)) (not (= E 0))) (not (= C 0))) (not (= A 0))) (INV_REC_f^f_PRE A C D E)) (INV_REC_f__1_PRE A B))))
(assert (forall ((A Int) (B Int) (C Int) (D Int) (E Int) (F Int) (G Int))(=> (and (and (and (and (and (and (and (= (+ C (- 1)) A) (= (+ D (- 1)) E)) (INV_REC_f__1 C E B)) (= F 0)) (not (>= (+ F (- 1)) 0))) (not (>= (+ C (- 1)) 0))) (not (= C 0))) (INV_REC_f^f_PRE C D F G)) (INV_REC_f__1_PRE A B))))
(assert (forall ((A Int) (B Int) (C Int) (D Int) (E Int) (F Int) (G Int) (H Int) (I Int))(=> (and (and (and (and (and (and (and (and (and (= (+ D 1) F) (= (+ A (- 1)) G)) (INV_REC_f__1 G H E)) (= (+ B (- 1)) I)) (INV_REC_f__1 A I H)) (= C 0)) (not (>= (+ C (- 1)) 0))) (not (>= (+ A (- 1)) 0))) (not (= A 0))) (INV_REC_f^f_PRE A B C D)) (INV_REC_f^f A B C D E F))))
(assert (forall ((A Int) (B Int) (C Int) (D Int) (E Int))(=> (and (and (and (and (and (= (+ C (- 1)) B) (= D 0)) (not (>= (+ D (- 1)) 0))) (not (>= (+ A (- 1)) 0))) (not (= A 0))) (INV_REC_f^f_PRE A C D E)) (INV_REC_f__1_PRE A B))))
(assert (forall ((A Int) (B Int) (C Int) (D Int) (E Int) (F Int) (G Int))(=> (and (and (and (and (and (and (and (= (+ C (- 1)) A) (= (+ D (- 1)) E)) (INV_REC_f__1 C E B)) (= F 0)) (not (= G 0))) (not (>= (+ C (- 1)) 0))) (not (= C 0))) (INV_REC_f^f_PRE C D F G)) (INV_REC_f__1_PRE A B))))
(assert (forall ((A Int) (B Int) (C Int) (D Int) (E Int) (F Int) (G Int) (H Int) (I Int))(=> (and (and (and (and (and (and (and (and (and (= (+ D 1) F) (= (+ A (- 1)) G)) (INV_REC_f__1 G H E)) (= (+ B (- 1)) I)) (INV_REC_f__1 A I H)) (= C 0)) (not (= D 0))) (not (>= (+ A (- 1)) 0))) (not (= A 0))) (INV_REC_f^f_PRE A B C D)) (INV_REC_f^f A B C D E F))))
(assert (forall ((A Int) (B Int) (C Int) (D Int) (E Int))(=> (and (and (and (and (and (= (+ C (- 1)) B) (= D 0)) (not (= E 0))) (not (>= (+ A (- 1)) 0))) (not (= A 0))) (INV_REC_f^f_PRE A C D E)) (INV_REC_f__1_PRE A B))))
(assert (forall ((A Int) (B Int) (C Int) (D Int) (E Int) (F Int) (G Int) (H Int) (I Int) (J Int))(=> (and (and (and (and (and (and (and (and (and (= (+ E (- 1)) A) (= (+ F (- 1)) C)) (= (+ G (- 1)) H)) (= (+ I (- 1)) J)) (INV_REC_f^f E H F J B D)) (not (= F 0))) (not (>= (+ F (- 1)) 0))) (not (= G 0))) (not (= E 0))) (INV_REC_f^f_PRE E G F I)) (INV_REC_f^f_PRE A B C D))))
(assert (forall ((A Int) (B Int) (C Int) (D Int) (E Int) (F Int) (G Int) (H Int) (I Int) (J Int) (K Int) (L Int))(=> (and (and (and (and (and (and (and (and (and (and (= (+ A (- 1)) G) (= (+ C (- 1)) H)) (INV_REC_f^f G I H J E F)) (= (+ B (- 1)) K)) (= (+ D (- 1)) L)) (INV_REC_f^f A K C L I J)) (not (= C 0))) (not (>= (+ C (- 1)) 0))) (not (= B 0))) (not (= A 0))) (INV_REC_f^f_PRE A B C D)) (INV_REC_f^f A B C D E F))))
(assert (forall ((A Int) (B Int) (C Int) (D Int) (E Int) (F Int))(=> (and (and (and (and (and (and (= (+ E (- 1)) B) (= (+ F (- 1)) D)) (not (= C 0))) (not (>= (+ C (- 1)) 0))) (not (= E 0))) (not (= A 0))) (INV_REC_f^f_PRE A E C F)) (INV_REC_f^f_PRE A B C D))))
(assert (forall ((A Int) (B Int) (C Int) (D Int) (E Int) (F Int) (G Int) (H Int) (I Int) (J Int))(=> (and (and (and (and (and (and (and (and (and (= (+ E (- 1)) A) (= (+ F (- 1)) C)) (= (+ G (- 1)) H)) (= (+ I (- 1)) J)) (INV_REC_f^f E H F J B D)) (not (= F 0))) (not (= I 0))) (not (= G 0))) (not (= E 0))) (INV_REC_f^f_PRE E G F I)) (INV_REC_f^f_PRE A B C D))))
(assert (forall ((A Int) (B Int) (C Int) (D Int) (E Int) (F Int) (G Int) (H Int) (I Int) (J Int) (K Int) (L Int))(=> (and (and (and (and (and (and (and (and (and (and (= (+ A (- 1)) G) (= (+ C (- 1)) H)) (INV_REC_f^f G I H J E F)) (= (+ B (- 1)) K)) (= (+ D (- 1)) L)) (INV_REC_f^f A K C L I J)) (not (= C 0))) (not (= D 0))) (not (= B 0))) (not (= A 0))) (INV_REC_f^f_PRE A B C D)) (INV_REC_f^f A B C D E F))))
(assert (forall ((A Int) (B Int) (C Int) (D Int) (E Int) (F Int))(=> (and (and (and (and (and (and (= (+ E (- 1)) B) (= (+ F (- 1)) D)) (not (= C 0))) (not (= F 0))) (not (= E 0))) (not (= A 0))) (INV_REC_f^f_PRE A E C F)) (INV_REC_f^f_PRE A B C D))))
(assert (forall ((A Int) (B Int) (C Int) (D Int) (E Int) (F Int) (G Int) (H Int) (I Int) (J Int))(=> (and (and (and (and (and (and (and (and (and (= (+ E (- 1)) A) (= (+ F (- 1)) C)) (= (+ G (- 1)) H)) (= (+ I (- 1)) J)) (INV_REC_f^f E H F J B D)) (not (= F 0))) (not (>= (+ F (- 1)) 0))) (not (>= (+ E (- 1)) 0))) (not (= E 0))) (INV_REC_f^f_PRE E G F I)) (INV_REC_f^f_PRE A B C D))))
(assert (forall ((A Int) (B Int) (C Int) (D Int) (E Int) (F Int) (G Int) (H Int) (I Int) (J Int) (K Int) (L Int))(=> (and (and (and (and (and (and (and (and (and (and (= (+ A (- 1)) G) (= (+ C (- 1)) H)) (INV_REC_f^f G I H J E F)) (= (+ B (- 1)) K)) (= (+ D (- 1)) L)) (INV_REC_f^f A K C L I J)) (not (= C 0))) (not (>= (+ C (- 1)) 0))) (not (>= (+ A (- 1)) 0))) (not (= A 0))) (INV_REC_f^f_PRE A B C D)) (INV_REC_f^f A B C D E F))))
(assert (forall ((A Int) (B Int) (C Int) (D Int) (E Int) (F Int))(=> (and (and (and (and (and (and (= (+ E (- 1)) B) (= (+ F (- 1)) D)) (not (= C 0))) (not (>= (+ C (- 1)) 0))) (not (>= (+ A (- 1)) 0))) (not (= A 0))) (INV_REC_f^f_PRE A E C F)) (INV_REC_f^f_PRE A B C D))))
(assert (forall ((A Int) (B Int) (C Int) (D Int) (E Int) (F Int) (G Int) (H Int) (I Int) (J Int))(=> (and (and (and (and (and (and (and (and (and (= (+ E (- 1)) A) (= (+ F (- 1)) C)) (= (+ G (- 1)) H)) (= (+ I (- 1)) J)) (INV_REC_f^f E H F J B D)) (not (= F 0))) (not (= I 0))) (not (>= (+ E (- 1)) 0))) (not (= E 0))) (INV_REC_f^f_PRE E G F I)) (INV_REC_f^f_PRE A B C D))))
(assert (forall ((A Int) (B Int) (C Int) (D Int) (E Int) (F Int) (G Int) (H Int) (I Int) (J Int) (K Int) (L Int))(=> (and (and (and (and (and (and (and (and (and (and (= (+ A (- 1)) G) (= (+ C (- 1)) H)) (INV_REC_f^f G I H J E F)) (= (+ B (- 1)) K)) (= (+ D (- 1)) L)) (INV_REC_f^f A K C L I J)) (not (= C 0))) (not (= D 0))) (not (>= (+ A (- 1)) 0))) (not (= A 0))) (INV_REC_f^f_PRE A B C D)) (INV_REC_f^f A B C D E F))))
(assert (forall ((A Int) (B Int) (C Int) (D Int) (E Int) (F Int))(=> (and (and (and (and (and (and (= (+ E (- 1)) B) (= (+ F (- 1)) D)) (not (= C 0))) (not (= F 0))) (not (>= (+ A (- 1)) 0))) (not (= A 0))) (INV_REC_f^f_PRE A E C F)) (INV_REC_f^f_PRE A B C D))))
(assert (forall ((A Int) (B Int) (C Int))(=> (and (and (= (+ B 1) C) (= A 0)) (INV_REC_f__1_PRE A B)) (INV_REC_f__1 A B C))))
(assert (forall ((A Int) (B Int) (C Int) (D Int) (E Int))(=> (and (and (and (and (and (and (= (+ A (- 1)) D) (= (* (- 1) E) (- 1))) (INV_REC_f__1 D E C)) (= B 0)) (>= (+ A (- 1)) 0)) (not (= A 0))) (INV_REC_f__1_PRE A B)) (INV_REC_f__1 A B C))))
(assert (forall ((A Int) (B Int) (C Int) (D Int))(=> (and (and (and (and (and (= (+ C (- 1)) A) (= (* (- 1) B) (- 1))) (= D 0)) (>= (+ C (- 1)) 0)) (not (= C 0))) (INV_REC_f__1_PRE C D)) (INV_REC_f__1_PRE A B))))
(assert (forall ((A Int) (B Int) (C Int) (D Int) (E Int))(=> (and (and (and (and (and (= (+ C (- 1)) A) (= (+ D (- 1)) E)) (INV_REC_f__1 C E B)) (not (= D 0))) (not (= C 0))) (INV_REC_f__1_PRE C D)) (INV_REC_f__1_PRE A B))))
(assert (forall ((A Int) (B Int) (C Int) (D Int) (E Int) (F Int))(=> (and (and (and (and (and (and (= (+ A (- 1)) D) (INV_REC_f__1 D E C)) (= (+ B (- 1)) F)) (INV_REC_f__1 A F E)) (not (= B 0))) (not (= A 0))) (INV_REC_f__1_PRE A B)) (INV_REC_f__1 A B C))))
(assert (forall ((A Int) (B Int) (C Int))(=> (and (and (and (= (+ C (- 1)) B) (not (= C 0))) (not (= A 0))) (INV_REC_f__1_PRE A C)) (INV_REC_f__1_PRE A B))))
(assert (forall ((A Int) (B Int) (C Int) (D Int) (E Int))(=> (and (and (and (and (and (= (+ C (- 1)) A) (= (+ D (- 1)) E)) (INV_REC_f__1 C E B)) (not (>= (+ C (- 1)) 0))) (not (= C 0))) (INV_REC_f__1_PRE C D)) (INV_REC_f__1_PRE A B))))
(assert (forall ((A Int) (B Int) (C Int) (D Int) (E Int) (F Int))(=> (and (and (and (and (and (and (= (+ A (- 1)) D) (INV_REC_f__1 D E C)) (= (+ B (- 1)) F)) (INV_REC_f__1 A F E)) (not (>= (+ A (- 1)) 0))) (not (= A 0))) (INV_REC_f__1_PRE A B)) (INV_REC_f__1 A B C))))
(assert (forall ((A Int) (B Int) (C Int))(=> (and (and (and (= (+ C (- 1)) B) (not (>= (+ A (- 1)) 0))) (not (= A 0))) (INV_REC_f__1_PRE A C)) (INV_REC_f__1_PRE A B))))
(assert (forall ((A Int) (B Int) (C Int) (D Int))(=> (and (and (and (and (= (+ C (- 1)) A) (= (* (- 1) B) (- 1))) (= D 0)) (>= (+ C (- 1)) 0)) (INV_REC_f__2_PRE C D)) (INV_REC_f__2_PRE A B))))
(assert (forall ((A Int) (B Int) (C Int) (D Int) (E Int))(=> (and (and (and (and (and (= (+ A (- 1)) D) (= (* (- 1) E) (- 1))) (INV_REC_f__2 D E C)) (= B 0)) (>= (+ A (- 1)) 0)) (INV_REC_f__2_PRE A B)) (INV_REC_f__2 A B C))))
(assert (forall ((A Int) (B Int) (C Int))(=> (and (and (and (= (+ B 1) C) (= A 0)) (not (and (>= (+ A (- 1)) 0) (= B 0)))) (INV_REC_f__2_PRE A B)) (INV_REC_f__2 A B C))))
(assert (forall ((A Int) (B Int) (C Int) (D Int) (E Int))(=> (and (and (and (and (and (= (+ C (- 1)) A) (= (+ D (- 1)) E)) (INV_REC_f__2 C E B)) (not (= C 0))) (not (>= (+ C (- 1)) 0))) (INV_REC_f__2_PRE C D)) (INV_REC_f__2_PRE A B))))
(assert (forall ((A Int) (B Int) (C Int) (D Int) (E Int) (F Int))(=> (and (and (and (and (and (and (= (+ A (- 1)) D) (INV_REC_f__2 D E C)) (= (+ B (- 1)) F)) (INV_REC_f__2 A F E)) (not (= A 0))) (not (>= (+ A (- 1)) 0))) (INV_REC_f__2_PRE A B)) (INV_REC_f__2 A B C))))
(assert (forall ((A Int) (B Int) (C Int))(=> (and (and (and (= (+ C (- 1)) B) (not (= A 0))) (not (>= (+ A (- 1)) 0))) (INV_REC_f__2_PRE A C)) (INV_REC_f__2_PRE A B))))
(assert (forall ((A Int) (B Int) (C Int) (D Int) (E Int))(=> (and (and (and (and (and (= (+ C (- 1)) A) (= (+ D (- 1)) E)) (INV_REC_f__2 C E B)) (not (= C 0))) (not (= D 0))) (INV_REC_f__2_PRE C D)) (INV_REC_f__2_PRE A B))))
(assert (forall ((A Int) (B Int) (C Int) (D Int) (E Int) (F Int))(=> (and (and (and (and (and (and (= (+ A (- 1)) D) (INV_REC_f__2 D E C)) (= (+ B (- 1)) F)) (INV_REC_f__2 A F E)) (not (= A 0))) (not (= B 0))) (INV_REC_f__2_PRE A B)) (INV_REC_f__2 A B C))))
(assert (forall ((A Int) (B Int) (C Int))(=> (and (and (and (= (+ C (- 1)) B) (not (= A 0))) (not (= C 0))) (INV_REC_f__2_PRE A C)) (INV_REC_f__2_PRE A B))))
(check-sat)
